1 0 1 0
0 0 2 0
3 0 1 8
2 0 2 1
5 0 1 13
1 1 2 8
2 1 3 6
4 0 2 13
0 1 0 1
5 1 3 16
3 1 0 13
2 2 5 10
1 2 4 13
0 2 1 16
2 3 0 18
4 1 1 22
5 2 5 19
3 2 2 22
0 3 3 22
1 3 5 28
3 3 3 29
5 3 0 28
4 2 4 25
2 4 1 27
2 5 4 30
3 4 4 37
1 4 0 38
4 3 5 38
0 4 5 42
5 4 4 45
5 5 2 49
3 5 5 45
4 4 0 48
1 5 3 48
0 5 4 49
4 5 3 52

